c description: Random 3-CNF over 21 variables and 89 clauses
c generator: CNFgen (0.9.2)
c copyright: (C) 2012-2022 Massimo Lauria <massimo.lauria@uniroma1.it>
c url: https://massimolauria.net/cnfgen
c command line: cnfgen --output CNF_4.28/21_bit_89_335.cnf randkcnf 3 21 89
c
p cnf 21 89
5 -14 -17 0
9 -12 19 0
-10 15 20 0
5 -6 -21 0
-7 15 -20 0
-4 -9 16 0
4 -10 12 0
-2 8 9 0
-5 17 -18 0
-4 -20 -21 0
10 16 17 0
-4 8 -10 0
8 -11 16 0
10 -12 -17 0
2 9 -20 0
6 15 17 0
-6 -10 -17 0
-11 -14 -21 0
-3 7 -19 0
6 -19 -20 0
-13 -16 21 0
3 9 19 0
13 19 20 0
5 8 -20 0
-5 -12 15 0
11 15 -16 0
5 -10 -14 0
4 6 -7 0
-1 -19 20 0
-4 -20 21 0
-13 16 -17 0
-5 -14 -19 0
6 -8 -11 0
2 -9 -10 0
-7 10 -15 0
15 18 -21 0
11 12 -16 0
-5 12 -13 0
-13 -19 -21 0
6 -18 21 0
1 -3 17 0
-3 5 9 0
1 -3 20 0
-2 -11 18 0
-2 -10 19 0
2 -3 5 0
8 -14 -18 0
12 -17 21 0
-5 10 14 0
12 17 -19 0
-10 11 16 0
-5 -12 14 0
-6 10 12 0
-6 11 -19 0
3 11 12 0
1 -4 -19 0
-11 14 -16 0
-1 5 13 0
1 8 11 0
-5 -14 21 0
12 14 -17 0
-3 -9 21 0
-3 -5 15 0
-12 -15 -18 0
9 -11 13 0
6 11 19 0
6 -12 -13 0
4 -12 15 0
-4 -5 -21 0
1 -9 -11 0
8 -11 13 0
-12 14 15 0
2 5 -7 0
8 -11 -21 0
6 -12 -21 0
-5 -9 13 0
10 11 12 0
3 -6 -18 0
7 -12 20 0
-10 17 -21 0
7 12 21 0
-5 -9 -18 0
6 -7 15 0
-14 -15 -18 0
-6 8 13 0
-1 -6 -13 0
-9 10 14 0
-11 -14 16 0
-17 18 21 0
